(set-info :original "/var/folders/xz/sgqbj6yn0yv_1mpy6_jqympm0000gn/T/sea-QAzlke/str_cmp_fc.pp.ms.o.bc")
(set-info :authors "SeaHorn v.0.1.0-rc3")
(declare-rel verifier.error (Bool Bool Bool ))
(declare-rel main@entry (Int Int ))
(declare-rel main@_bb (Int Int Int (Array Int Int) Int (Array Int Int) ))
(declare-rel main@_bb7 (Int Int Int Int (Array Int Int) (Array Int Int) Int ))
(declare-rel main@_bb9 (Int Int (Array Int Int) (Array Int Int) Int Int ))
(declare-rel main@_bb13 (Int Int Int (Array Int Int) (Array Int Int) ))
(declare-rel main@verifier.error.split ())
(declare-var main@%_7_0 Int )
(declare-var main@%_8_0 Int )
(declare-var main@%_9_0 Int )
(declare-var main@%_18_0 Int )
(declare-var main@%_19_0 Int )
(declare-var main@%_20_0 Int )
(declare-var main@%_46_0 Int )
(declare-var main@%_47_0 Int )
(declare-var main@%_48_0 Int )
(declare-var main@%_49_0 Int )
(declare-var main@%_50_0 Bool )
(declare-var main@%_51_0 Int )
(declare-var main@%_52_0 Bool )
(declare-var main@%_42_0 Int )
(declare-var main@%_43_0 Int )
(declare-var main@%_44_0 Bool )
(declare-var main@%_34_0 Int )
(declare-var main@%_35_0 Int )
(declare-var main@%_36_0 Int )
(declare-var main@%_37_0 Int )
(declare-var main@%_38_0 Int )
(declare-var main@%_39_0 Bool )
(declare-var main@%_28_0 Int )
(declare-var main@%_29_0 Int )
(declare-var main@%_30_0 Bool )
(declare-var main@%_25_0 Int )
(declare-var main@%_26_0 Bool )
(declare-var main@%_22_0 Int )
(declare-var main@%_23_0 Int )
(declare-var main@%_15_0 Int )
(declare-var main@%_16_0 Bool )
(declare-var main@%_11_0 Int )
(declare-var main@%_12_0 Int )
(declare-var main@%_4_0 Int )
(declare-var main@%_5_0 Bool )
(declare-var main@%_0_0 Int )
(declare-var @__VERIFIER_nondet_int_0 Int )
(declare-var @__VERIFIER_nondet_char_0 Int )
(declare-var main@entry_0 Bool )
(declare-var main@%sm4_0 (Array Int Int) )
(declare-var main@%sm5_0 (Array Int Int) )
(declare-var main@%_1_0 Int )
(declare-var main@%_2_0 Int )
(declare-var main@_bb_0 Bool )
(declare-var main@%shadow.mem.0.0_0 (Array Int Int) )
(declare-var main@%.0.i.i_0 Int )
(declare-var main@%shadow.mem.0.0_1 (Array Int Int) )
(declare-var main@%.0.i.i_1 Int )
(declare-var main@_bb6_0 Bool )
(declare-var main@%sm_0 (Array Int Int) )
(declare-var main@%_10_0 Int )
(declare-var main@_bb_1 Bool )
(declare-var main@%shadow.mem.0.0_2 (Array Int Int) )
(declare-var main@%.0.i.i_2 Int )
(declare-var main@init.exit.i_0 Bool )
(declare-var main@%sm1_0 (Array Int Int) )
(declare-var main@%_13_0 Int )
(declare-var main@_bb7_0 Bool )
(declare-var main@%shadow.mem.1.0_0 (Array Int Int) )
(declare-var main@%.0.i1.i_0 Int )
(declare-var main@%shadow.mem.1.0_1 (Array Int Int) )
(declare-var main@%.0.i1.i_1 Int )
(declare-var main@_bb8_0 Bool )
(declare-var main@%sm2_0 (Array Int Int) )
(declare-var main@%_21_0 Int )
(declare-var main@_bb7_1 Bool )
(declare-var main@%shadow.mem.1.0_2 (Array Int Int) )
(declare-var main@%.0.i1.i_2 Int )
(declare-var main@init.exit2.i_0 Bool )
(declare-var main@%sm3_0 (Array Int Int) )
(declare-var main@_bb9_0 Bool )
(declare-var main@%.01.i.i_0 Int )
(declare-var main@%.0.i3.i_0 Int )
(declare-var main@%.01.i.i_1 Int )
(declare-var main@%.0.i3.i_1 Int )
(declare-var main@_bb10_0 Bool )
(declare-var main@_bb11_0 Bool )
(declare-var main@%_32_0 Int )
(declare-var main@%_33_0 Int )
(declare-var main@_bb9_1 Bool )
(declare-var main@%.01.i.i_2 Int )
(declare-var main@%.0.i3.i_2 Int )
(declare-var main@cmp.exit.i_0 Bool )
(declare-var |tuple(main@_bb10_0, main@cmp.exit.i_0)| Bool )
(declare-var |tuple(main@_bb9_0, main@cmp.exit.i_0)| Bool )
(declare-var main@_bb12_0 Bool )
(declare-var main@_bb13_0 Bool )
(declare-var main@%.0.i_0 Int )
(declare-var main@%.0.i_1 Int )
(declare-var main@_bb14_0 Bool )
(declare-var main@__VERIFIER_assert.exit.i_0 Bool )
(declare-var main@%_54_0 Int )
(declare-var main@_bb13_1 Bool )
(declare-var main@%.0.i_2 Int )
(declare-var main@_bb15_0 Bool )
(declare-var main@verifier.error_0 Bool )
(declare-var main@verifier.error.split_0 Bool )
(rule (let ((a!1 (and (main@_bb9 main@%_2_0
                           main@%_13_0
                           main@%sm1_0
                           main@%sm3_0
                           main@%.0.i3.i_0
                           main@%.01.i.i_0)
                true
                (= main@%_25_0 (select main@%sm1_0 main@%.0.i3.i_0))
                (= main@%_26_0 (= main@%_25_0 0))
                (=> main@_bb10_0 (and main@_bb10_0 main@_bb9_0))
                (=> (and main@_bb10_0 main@_bb9_0) (not main@%_26_0))
                (=> main@_bb10_0
                    (= main@%_28_0 (select main@%sm1_0 main@%.0.i3.i_0)))
                (=> main@_bb10_0
                    (= main@%_29_0 (select main@%sm3_0 main@%.01.i.i_0)))
                (=> main@_bb10_0 (= main@%_30_0 (= main@%_28_0 main@%_29_0)))
                (=> |tuple(main@_bb10_0, main@cmp.exit.i_0)| main@_bb10_0)
                (=> |tuple(main@_bb9_0, main@cmp.exit.i_0)| main@_bb9_0)
                (=> main@cmp.exit.i_0
                    (or |tuple(main@_bb10_0, main@cmp.exit.i_0)|
                        |tuple(main@_bb9_0, main@cmp.exit.i_0)|))
                (=> |tuple(main@_bb10_0, main@cmp.exit.i_0)| (not main@%_30_0))
                (=> |tuple(main@_bb9_0, main@cmp.exit.i_0)| main@%_26_0)
                (=> main@cmp.exit.i_0
                    (= main@%_34_0 (select main@%sm1_0 main@%.0.i3.i_0)))
                (=> main@cmp.exit.i_0 (= main@%_35_0 main@%_34_0))
                (=> main@cmp.exit.i_0
                    (= main@%_36_0 (select main@%sm3_0 main@%.01.i.i_0)))
                (=> main@cmp.exit.i_0 (= main@%_37_0 main@%_36_0))
                (=> main@cmp.exit.i_0
                    (= main@%_38_0 (- main@%_35_0 main@%_37_0)))
                (=> main@cmp.exit.i_0 (= main@%_39_0 (= main@%_38_0 0)))
                (=> main@cmp.exit.i_0 main@%_39_0)
                (=> main@_bb12_0 (and main@_bb12_0 main@cmp.exit.i_0))
                (=> main@_bb13_0 (and main@_bb13_0 main@_bb12_0))
                (=> (and main@_bb13_0 main@_bb12_0) (= main@%.0.i_0 0))
                (=> (and main@_bb13_0 main@_bb12_0)
                    (= main@%.0.i_1 main@%.0.i_0))
                main@_bb13_0)))
  (=> a!1
      (main@_bb13 main@%_2_0 main@%_13_0 main@%.0.i_1 main@%sm1_0 main@%sm3_0))))
(query main@verifier.error.split)

